BEGIN IONS
INSTRUMENT=Thermo Finnigan Elite Orbitrap
INSTRUMENT_TYPE=HCD
IONIZATION=ESI
COLLISION_ENERGY=NCE=10% 10eV
COLLISION_GAS=N2
SAMPLE_INLET=direct flow injection
NOTES=Spec=Consensus Nreps=26/26 Mz_diff=-0.4ppm Vial_ID=23580 Data_source:Met_2018_8f~1217
INCHIKEY=ZHXRWFOBROFZAC-LVYGOKBNSA-N
SYNON=Trifolirhizin 6'-O-malonate
FORMULA=C25H24O13
CAS#=135574-57-1;  NIST#: 3003166
NUM_PEAKS=26
COMPOUND_NAME=6'-Malonyltrifolirhizin
IONMODE=p
ADDUCT=[M+H]+
PRECURSOR_MZ=533.129
PARENT_MASS=532.121693
MS_LEVEL=MS2
NOMINAL_MASS=532
SPECTRUM_ID=641642
COMMENT=NIST Mass Spectrometry Data Center
85.0278 0.025525525525525526 
123.0434 0.3896896896896897 
127.0383 0.044444444444444446 
145.0489 0.03453453453453453 
151.0385 0.008208208208208207 
165.0537 0.015715715715715714 
175.0382 0.023023023023023025 
177.054 0.04864864864864865 
189.0386 0.03043043043043043 
217.0485 0.008608608608608608 
231.0492 0.04374374374374375 
284.0672 0.06176176176176176 
285.0729 0.17967967967967968 
309.0744 0.3119119119119119 
327.0849 0.8760760760760761 
335.0754 0.05755755755755756 
351.0847 0.17107107107107108 
353.0862 0.04864864864864865 
371.0957 0.3846846846846847 
375.0866 0.008408408408408409 
393.0979 0.01711711711711712 
405.0816 0.02292292292292292 
423.0913 0.023123123123123125 
497.1067 0.06826826826826828 
515.1163 0.11971971971971972 
533.1259 1.0 
END IONS

